<number of tasks>
50

<cycle time>
1000

<order strength>
0.596


<task times>
1 32
2 73
3 27
4 97
5 130
6 111
7 133
8 87
9 157
10 25
11 101
12 127
13 214
14 132
15 64
16 309
17 116
18 47
19 186
20 140
21 109
22 203
23 80
24 220
25 25
26 73
27 214
28 81
29 39
30 131
31 68
32 227
33 20
34 278
35 246
36 27
37 153
38 100
39 190
40 159
41 84
42 21
43 296
44 153
45 201
46 181
47 58
48 26
49 315
50 204

<precedence relations>
1,6
2,6
3,6
4,6
5,7
5,8
6,9
6,10
6,11
6,12
6,13
7,19
8,14
8,16
9,16
10,15
10,16
10,18
11,15
11,16
11,17
11,18
12,15
12,16
12,21
12,25
13,16
14,17
14,18
15,19
16,19
17,19
18,20
18,21
18,22
18,23
18,24
18,25
18,43
19,26
19,27
19,28
19,29
19,30
20,45
22,36
22,41
24,37
25,31
25,32
26,34
26,35
26,37
26,42
28,36
28,38
29,39
30,33
31,37
31,44
33,41
34,43
34,44
35,39
35,40
38,39
39,45
40,43
40,44
41,42
42,45
43,45
44,46
45,47
45,48
45,49
45,50

<end>
